n = 4;

m_names = ["Damian", "Eryk", "Filip", "Grzegorz"];
w_names = ["Diana", "Ela", "Felicja", "Gosia"];

m_ranks = array2d(1..4, 1..4, [
  2, 1, 3, 4,
  4, 3, 1, 2,
  1, 4, 2, 3,
  3, 2, 4, 1
]);

w_ranks = array2d(1..4, 1..4, [
  1, 2, 3, 4,
  3, 4, 2, 1,
  2, 1, 4, 3,
  4, 3, 1, 2
]);